(set-logic HORN)
(declare-datatypes ((Nat_1 0)) (((Z_0 ) (S_0 (unS_0 Nat_1)))))
(declare-fun diseqNat_0 (Nat_1 Nat_1) Bool)
(declare-fun unS_1 (Nat_1 Nat_1) Bool)
(declare-fun isZ_0 (Nat_1) Bool)
(declare-fun isS_0 (Nat_1) Bool)
(assert (forall ((x_198 Nat_1) (x_197 Nat_1))
	(=> (= x_198 (S_0 x_197))
	    (unS_1 x_197 x_198))))
(assert (isZ_0 Z_0))
(assert (forall ((x_199 Nat_1))
	(isS_0 (S_0 x_199))))
(assert (forall ((x_200 Nat_1))
	(diseqNat_0 Z_0 (S_0 x_200))))
(assert (forall ((x_201 Nat_1))
	(diseqNat_0 (S_0 x_201) Z_0)))
(assert (forall ((x_202 Nat_1) (x_203 Nat_1))
	(=> (diseqNat_0 x_202 x_203)
	    (diseqNat_0 (S_0 x_202) (S_0 x_203)))))
(declare-fun add_1 (Nat_1 Nat_1 Nat_1) Bool)
(declare-fun minus_0 (Nat_1 Nat_1 Nat_1) Bool)
(declare-fun le_0 (Nat_1 Nat_1) Bool)
(declare-fun ge_0 (Nat_1 Nat_1) Bool)
(declare-fun lt_0 (Nat_1 Nat_1) Bool)
(declare-fun gt_0 (Nat_1 Nat_1) Bool)
(declare-fun mult_0 (Nat_1 Nat_1 Nat_1) Bool)
(declare-fun div_0 (Nat_1 Nat_1 Nat_1) Bool)
(declare-fun mod_0 (Nat_1 Nat_1 Nat_1) Bool)
(assert (forall ((y_8 Nat_1))
	(add_1 y_8 Z_0 y_8)))
(assert (forall ((x_195 Nat_1) (y_8 Nat_1) (r_0 Nat_1))
	(=> (add_1 r_0 x_195 y_8)
	    (add_1 (S_0 r_0) (S_0 x_195) y_8))))
(assert (forall ((y_8 Nat_1))
	(minus_0 Z_0 Z_0 y_8)))
(assert (forall ((x_195 Nat_1) (y_8 Nat_1) (r_0 Nat_1))
	(=> (minus_0 r_0 x_195 y_8)
	    (minus_0 (S_0 r_0) (S_0 x_195) y_8))))
(assert (forall ((y_8 Nat_1))
	(le_0 Z_0 y_8)))
(assert (forall ((x_195 Nat_1) (y_8 Nat_1))
	(=> (le_0 x_195 y_8)
	    (le_0 (S_0 x_195) (S_0 y_8)))))
(assert (forall ((y_8 Nat_1))
	(ge_0 y_8 Z_0)))
(assert (forall ((x_195 Nat_1) (y_8 Nat_1))
	(=> (ge_0 x_195 y_8)
	    (ge_0 (S_0 x_195) (S_0 y_8)))))
(assert (forall ((y_8 Nat_1))
	(lt_0 Z_0 (S_0 y_8))))
(assert (forall ((x_195 Nat_1) (y_8 Nat_1))
	(=> (lt_0 x_195 y_8)
	    (lt_0 (S_0 x_195) (S_0 y_8)))))
(assert (forall ((y_8 Nat_1))
	(gt_0 (S_0 y_8) Z_0)))
(assert (forall ((x_195 Nat_1) (y_8 Nat_1))
	(=> (gt_0 x_195 y_8)
	    (gt_0 (S_0 x_195) (S_0 y_8)))))
(assert (forall ((y_8 Nat_1))
	(mult_0 Z_0 Z_0 y_8)))
(assert (forall ((x_195 Nat_1) (y_8 Nat_1) (r_0 Nat_1) (z_7 Nat_1))
	(=>	(and (mult_0 r_0 x_195 y_8)
			(add_1 z_7 r_0 y_8))
		(mult_0 z_7 (S_0 x_195) y_8))))
(assert (forall ((x_195 Nat_1) (y_8 Nat_1))
	(=> (lt_0 x_195 y_8)
	    (div_0 Z_0 x_195 y_8))))
(assert (forall ((x_195 Nat_1) (y_8 Nat_1) (r_0 Nat_1) (z_7 Nat_1))
	(=>	(and (ge_0 x_195 y_8)
			(minus_0 z_7 x_195 y_8)
			(div_0 r_0 z_7 y_8))
		(div_0 (S_0 r_0) x_195 y_8))))
(assert (forall ((x_195 Nat_1) (y_8 Nat_1))
	(=> (lt_0 x_195 y_8)
	    (mod_0 x_195 x_195 y_8))))
(assert (forall ((x_195 Nat_1) (y_8 Nat_1) (r_0 Nat_1) (z_7 Nat_1))
	(=>	(and (ge_0 x_195 y_8)
			(minus_0 z_7 x_195 y_8)
			(mod_0 r_0 z_7 y_8))
		(mod_0 r_0 x_195 y_8))))
(declare-datatypes ((Nat_0 0)) (((zero_0 ) (succ_0 (p_0 Nat_0)))))
(declare-fun diseqNat_1 (Nat_0 Nat_0) Bool)
(declare-fun p_1 (Nat_0 Nat_0) Bool)
(declare-fun iszero_0 (Nat_0) Bool)
(declare-fun issucc_0 (Nat_0) Bool)
(assert (forall ((x_206 Nat_0) (x_205 Nat_0))
	(=> (= x_206 (succ_0 x_205))
	    (p_1 x_205 x_206))))
(assert (iszero_0 zero_0))
(assert (forall ((x_207 Nat_0))
	(issucc_0 (succ_0 x_207))))
(assert (forall ((x_208 Nat_0))
	(diseqNat_1 zero_0 (succ_0 x_208))))
(assert (forall ((x_209 Nat_0))
	(diseqNat_1 (succ_0 x_209) zero_0)))
(assert (forall ((x_210 Nat_0) (x_211 Nat_0))
	(=> (diseqNat_1 x_210 x_211)
	    (diseqNat_1 (succ_0 x_210) (succ_0 x_211)))))
(declare-fun plus_0 (Nat_0 Nat_0 Nat_0) Bool)
(assert (forall ((x_0 Nat_0) (y_0 Nat_0) (z_0 Nat_0) (x_20 Nat_0) (x_21 Nat_0))
	(=>	(and (= x_20 (succ_0 x_21))
			(plus_0 x_21 z_0 y_0)
			(= x_0 (succ_0 z_0)))
		(plus_0 x_20 x_0 y_0))))
(assert (forall ((x_0 Nat_0) (y_0 Nat_0) (x_22 Nat_0))
	(=>	(and (= x_22 y_0)
			(= x_0 zero_0))
		(plus_0 x_22 x_0 y_0))))
(declare-fun addacc_0 (Nat_0 Nat_0 Nat_0 Nat_0) Bool)
(assert (forall ((x_1 Nat_0) (y_1 Nat_0) (z_1 Nat_0) (x_2 Nat_0) (x_23 Nat_0) (x_24 Nat_0))
	(=>	(and (= x_23 x_24)
			(addacc_0 x_24 x_2 (succ_0 y_1) z_1)
			(= x_1 (succ_0 x_2)))
		(addacc_0 x_23 x_1 y_1 z_1))))
(assert (forall ((x_1 Nat_0) (y_1 Nat_0) (z_1 Nat_0) (x_3 Nat_0) (x_25 Nat_0) (x_26 Nat_0))
	(=>	(and (= x_25 x_26)
			(addacc_0 x_26 zero_0 x_3 (succ_0 z_1))
			(= x_1 zero_0)
			(= y_1 (succ_0 x_3)))
		(addacc_0 x_25 x_1 y_1 z_1))))
(assert (forall ((x_1 Nat_0) (y_1 Nat_0) (z_1 Nat_0) (x_27 Nat_0))
	(=>	(and (= x_27 z_1)
			(= x_1 zero_0)
			(= y_1 zero_0))
		(addacc_0 x_27 x_1 y_1 z_1))))
(declare-fun mulacc_0 (Nat_0 Nat_0 Nat_0 Nat_0) Bool)
(assert (forall ((x_4 Nat_0) (y_2 Nat_0) (z_2 Nat_0) (x_5 Nat_0) (x_6 Nat_0) (x_7 Nat_0) (fail_0 Nat_0) (x_36 Nat_0) (x_28 Nat_0) (x_29 Nat_0) (x_30 Nat_0) (x_31 Nat_0) (x_32 Nat_0) (x_33 Nat_0) (x_34 Nat_0) (x_35 Nat_0))
	(=>	(and (= x_36 (succ_0 zero_0))
			(= x_4 (succ_0 x_5))
			(= y_2 (succ_0 x_6))
			(= z_2 (succ_0 x_7))
			(= fail_0 x_35)
			(= x_5 zero_0)
			(= x_6 zero_0)
			(= x_7 zero_0)
			(mulacc_0 x_28 x_5 x_6 x_7)
			(mulacc_0 x_29 (succ_0 zero_0) x_6 x_7)
			(mulacc_0 x_30 x_5 (succ_0 zero_0) x_7)
			(mulacc_0 x_31 x_5 x_6 (succ_0 zero_0))
			(addacc_0 x_32 x_29 x_30 x_31)
			(addacc_0 x_33 (succ_0 x_5) (succ_0 x_6) (succ_0 x_7))
			(addacc_0 x_34 x_28 x_32 x_33)
			(plus_0 x_35 (succ_0 zero_0) x_34))
		(mulacc_0 x_36 x_4 y_2 z_2))))
(assert (forall ((x_4 Nat_0) (y_2 Nat_0) (z_2 Nat_0) (x_5 Nat_0) (x_6 Nat_0) (x_7 Nat_0) (fail_0 Nat_0) (x_45 Nat_0) (x_37 Nat_0) (x_38 Nat_0) (x_39 Nat_0) (x_40 Nat_0) (x_41 Nat_0) (x_42 Nat_0) (x_43 Nat_0) (x_44 Nat_0))
	(=>	(and (= x_45 fail_0)
			(= x_4 (succ_0 x_5))
			(= y_2 (succ_0 x_6))
			(= z_2 (succ_0 x_7))
			(= fail_0 x_44)
			(diseqNat_1 x_5 zero_0)
			(mulacc_0 x_37 x_5 x_6 x_7)
			(mulacc_0 x_38 (succ_0 zero_0) x_6 x_7)
			(mulacc_0 x_39 x_5 (succ_0 zero_0) x_7)
			(mulacc_0 x_40 x_5 x_6 (succ_0 zero_0))
			(addacc_0 x_41 x_38 x_39 x_40)
			(addacc_0 x_42 (succ_0 x_5) (succ_0 x_6) (succ_0 x_7))
			(addacc_0 x_43 x_37 x_41 x_42)
			(plus_0 x_44 (succ_0 zero_0) x_43))
		(mulacc_0 x_45 x_4 y_2 z_2))))
(assert (forall ((x_4 Nat_0) (y_2 Nat_0) (z_2 Nat_0) (x_5 Nat_0) (x_6 Nat_0) (x_7 Nat_0) (fail_0 Nat_0) (x_54 Nat_0) (x_46 Nat_0) (x_47 Nat_0) (x_48 Nat_0) (x_49 Nat_0) (x_50 Nat_0) (x_51 Nat_0) (x_52 Nat_0) (x_53 Nat_0))
	(=>	(and (= x_54 fail_0)
			(= x_4 (succ_0 x_5))
			(= y_2 (succ_0 x_6))
			(= z_2 (succ_0 x_7))
			(= fail_0 x_53)
			(= x_5 zero_0)
			(diseqNat_1 x_6 zero_0)
			(mulacc_0 x_46 x_5 x_6 x_7)
			(mulacc_0 x_47 (succ_0 zero_0) x_6 x_7)
			(mulacc_0 x_48 x_5 (succ_0 zero_0) x_7)
			(mulacc_0 x_49 x_5 x_6 (succ_0 zero_0))
			(addacc_0 x_50 x_47 x_48 x_49)
			(addacc_0 x_51 (succ_0 x_5) (succ_0 x_6) (succ_0 x_7))
			(addacc_0 x_52 x_46 x_50 x_51)
			(plus_0 x_53 (succ_0 zero_0) x_52))
		(mulacc_0 x_54 x_4 y_2 z_2))))
(assert (forall ((x_4 Nat_0) (y_2 Nat_0) (z_2 Nat_0) (x_5 Nat_0) (x_6 Nat_0) (x_7 Nat_0) (fail_0 Nat_0) (x_63 Nat_0) (x_55 Nat_0) (x_56 Nat_0) (x_57 Nat_0) (x_58 Nat_0) (x_59 Nat_0) (x_60 Nat_0) (x_61 Nat_0) (x_62 Nat_0))
	(=>	(and (= x_63 fail_0)
			(= x_4 (succ_0 x_5))
			(= y_2 (succ_0 x_6))
			(= z_2 (succ_0 x_7))
			(= fail_0 x_62)
			(diseqNat_1 x_5 zero_0)
			(mulacc_0 x_55 x_5 x_6 x_7)
			(mulacc_0 x_56 (succ_0 zero_0) x_6 x_7)
			(mulacc_0 x_57 x_5 (succ_0 zero_0) x_7)
			(mulacc_0 x_58 x_5 x_6 (succ_0 zero_0))
			(addacc_0 x_59 x_56 x_57 x_58)
			(addacc_0 x_60 (succ_0 x_5) (succ_0 x_6) (succ_0 x_7))
			(addacc_0 x_61 x_55 x_59 x_60)
			(plus_0 x_62 (succ_0 zero_0) x_61))
		(mulacc_0 x_63 x_4 y_2 z_2))))
(assert (forall ((x_4 Nat_0) (y_2 Nat_0) (z_2 Nat_0) (x_5 Nat_0) (x_6 Nat_0) (x_7 Nat_0) (fail_0 Nat_0) (x_72 Nat_0) (x_64 Nat_0) (x_65 Nat_0) (x_66 Nat_0) (x_67 Nat_0) (x_68 Nat_0) (x_69 Nat_0) (x_70 Nat_0) (x_71 Nat_0))
	(=>	(and (= x_72 fail_0)
			(= x_4 (succ_0 x_5))
			(= y_2 (succ_0 x_6))
			(= z_2 (succ_0 x_7))
			(= fail_0 x_71)
			(= x_5 zero_0)
			(= x_6 zero_0)
			(diseqNat_1 x_7 zero_0)
			(mulacc_0 x_64 x_5 x_6 x_7)
			(mulacc_0 x_65 (succ_0 zero_0) x_6 x_7)
			(mulacc_0 x_66 x_5 (succ_0 zero_0) x_7)
			(mulacc_0 x_67 x_5 x_6 (succ_0 zero_0))
			(addacc_0 x_68 x_65 x_66 x_67)
			(addacc_0 x_69 (succ_0 x_5) (succ_0 x_6) (succ_0 x_7))
			(addacc_0 x_70 x_64 x_68 x_69)
			(plus_0 x_71 (succ_0 zero_0) x_70))
		(mulacc_0 x_72 x_4 y_2 z_2))))
(assert (forall ((x_4 Nat_0) (y_2 Nat_0) (z_2 Nat_0) (x_5 Nat_0) (x_6 Nat_0) (x_7 Nat_0) (fail_0 Nat_0) (x_81 Nat_0) (x_73 Nat_0) (x_74 Nat_0) (x_75 Nat_0) (x_76 Nat_0) (x_77 Nat_0) (x_78 Nat_0) (x_79 Nat_0) (x_80 Nat_0))
	(=>	(and (= x_81 fail_0)
			(= x_4 (succ_0 x_5))
			(= y_2 (succ_0 x_6))
			(= z_2 (succ_0 x_7))
			(= fail_0 x_80)
			(diseqNat_1 x_5 zero_0)
			(mulacc_0 x_73 x_5 x_6 x_7)
			(mulacc_0 x_74 (succ_0 zero_0) x_6 x_7)
			(mulacc_0 x_75 x_5 (succ_0 zero_0) x_7)
			(mulacc_0 x_76 x_5 x_6 (succ_0 zero_0))
			(addacc_0 x_77 x_74 x_75 x_76)
			(addacc_0 x_78 (succ_0 x_5) (succ_0 x_6) (succ_0 x_7))
			(addacc_0 x_79 x_73 x_77 x_78)
			(plus_0 x_80 (succ_0 zero_0) x_79))
		(mulacc_0 x_81 x_4 y_2 z_2))))
(assert (forall ((x_4 Nat_0) (y_2 Nat_0) (z_2 Nat_0) (x_5 Nat_0) (x_6 Nat_0) (x_7 Nat_0) (fail_0 Nat_0) (x_90 Nat_0) (x_82 Nat_0) (x_83 Nat_0) (x_84 Nat_0) (x_85 Nat_0) (x_86 Nat_0) (x_87 Nat_0) (x_88 Nat_0) (x_89 Nat_0))
	(=>	(and (= x_90 fail_0)
			(= x_4 (succ_0 x_5))
			(= y_2 (succ_0 x_6))
			(= z_2 (succ_0 x_7))
			(= fail_0 x_89)
			(= x_5 zero_0)
			(diseqNat_1 x_6 zero_0)
			(mulacc_0 x_82 x_5 x_6 x_7)
			(mulacc_0 x_83 (succ_0 zero_0) x_6 x_7)
			(mulacc_0 x_84 x_5 (succ_0 zero_0) x_7)
			(mulacc_0 x_85 x_5 x_6 (succ_0 zero_0))
			(addacc_0 x_86 x_83 x_84 x_85)
			(addacc_0 x_87 (succ_0 x_5) (succ_0 x_6) (succ_0 x_7))
			(addacc_0 x_88 x_82 x_86 x_87)
			(plus_0 x_89 (succ_0 zero_0) x_88))
		(mulacc_0 x_90 x_4 y_2 z_2))))
(assert (forall ((x_4 Nat_0) (y_2 Nat_0) (z_2 Nat_0) (x_5 Nat_0) (x_6 Nat_0) (x_7 Nat_0) (fail_0 Nat_0) (x_99 Nat_0) (x_91 Nat_0) (x_92 Nat_0) (x_93 Nat_0) (x_94 Nat_0) (x_95 Nat_0) (x_96 Nat_0) (x_97 Nat_0) (x_98 Nat_0))
	(=>	(and (= x_99 fail_0)
			(= x_4 (succ_0 x_5))
			(= y_2 (succ_0 x_6))
			(= z_2 (succ_0 x_7))
			(= fail_0 x_98)
			(diseqNat_1 x_5 zero_0)
			(mulacc_0 x_91 x_5 x_6 x_7)
			(mulacc_0 x_92 (succ_0 zero_0) x_6 x_7)
			(mulacc_0 x_93 x_5 (succ_0 zero_0) x_7)
			(mulacc_0 x_94 x_5 x_6 (succ_0 zero_0))
			(addacc_0 x_95 x_92 x_93 x_94)
			(addacc_0 x_96 (succ_0 x_5) (succ_0 x_6) (succ_0 x_7))
			(addacc_0 x_97 x_91 x_95 x_96)
			(plus_0 x_98 (succ_0 zero_0) x_97))
		(mulacc_0 x_99 x_4 y_2 z_2))))
(assert (forall ((x_4 Nat_0) (y_2 Nat_0) (z_2 Nat_0) (x_5 Nat_0) (x_6 Nat_0) (x_100 Nat_0))
	(=>	(and (= x_100 zero_0)
			(= x_4 (succ_0 x_5))
			(= y_2 (succ_0 x_6))
			(= z_2 zero_0))
		(mulacc_0 x_100 x_4 y_2 z_2))))
(assert (forall ((x_4 Nat_0) (y_2 Nat_0) (z_2 Nat_0) (x_5 Nat_0) (x_101 Nat_0))
	(=>	(and (= x_101 zero_0)
			(= x_4 (succ_0 x_5))
			(= y_2 zero_0))
		(mulacc_0 x_101 x_4 y_2 z_2))))
(assert (forall ((x_4 Nat_0) (y_2 Nat_0) (z_2 Nat_0) (x_102 Nat_0))
	(=>	(and (= x_102 zero_0)
			(= x_4 zero_0))
		(mulacc_0 x_102 x_4 y_2 z_2))))
(declare-fun add_0 (Nat_0 Nat_0 Nat_0 Nat_0) Bool)
(assert (forall ((x_8 Nat_0) (y_3 Nat_0) (z_3 Nat_0) (x_9 Nat_0) (x_103 Nat_0) (x_104 Nat_0) (x_105 Nat_0))
	(=>	(and (= x_103 x_105)
			(add_0 x_104 x_9 y_3 z_3)
			(plus_0 x_105 (succ_0 zero_0) x_104)
			(= x_8 (succ_0 x_9)))
		(add_0 x_103 x_8 y_3 z_3))))
(assert (forall ((x_8 Nat_0) (y_3 Nat_0) (z_3 Nat_0) (x_10 Nat_0) (x_106 Nat_0) (x_107 Nat_0) (x_108 Nat_0))
	(=>	(and (= x_106 x_108)
			(add_0 x_107 zero_0 x_10 z_3)
			(plus_0 x_108 (succ_0 zero_0) x_107)
			(= x_8 zero_0)
			(= y_3 (succ_0 x_10)))
		(add_0 x_106 x_8 y_3 z_3))))
(assert (forall ((x_8 Nat_0) (y_3 Nat_0) (z_3 Nat_0) (x_109 Nat_0))
	(=>	(and (= x_109 z_3)
			(= x_8 zero_0)
			(= y_3 zero_0))
		(add_0 x_109 x_8 y_3 z_3))))
(declare-fun mul_0 (Nat_0 Nat_0 Nat_0 Nat_0) Bool)
(assert (forall ((x_11 Nat_0) (y_4 Nat_0) (z_4 Nat_0) (x_12 Nat_0) (x_13 Nat_0) (x_14 Nat_0) (fail_1 Nat_0) (x_118 Nat_0) (x_110 Nat_0) (x_111 Nat_0) (x_112 Nat_0) (x_113 Nat_0) (x_114 Nat_0) (x_115 Nat_0) (x_116 Nat_0) (x_117 Nat_0))
	(=>	(and (= x_118 (succ_0 zero_0))
			(= x_11 (succ_0 x_12))
			(= y_4 (succ_0 x_13))
			(= z_4 (succ_0 x_14))
			(= fail_1 x_117)
			(= x_12 zero_0)
			(= x_13 zero_0)
			(= x_14 zero_0)
			(mul_0 x_110 x_12 x_13 x_14)
			(mul_0 x_111 (succ_0 zero_0) x_13 x_14)
			(mul_0 x_112 x_12 (succ_0 zero_0) x_14)
			(mul_0 x_113 x_12 x_13 (succ_0 zero_0))
			(add_0 x_114 x_111 x_112 x_113)
			(add_0 x_115 x_12 x_13 x_14)
			(add_0 x_116 x_110 x_114 x_115)
			(plus_0 x_117 (succ_0 zero_0) x_116))
		(mul_0 x_118 x_11 y_4 z_4))))
(assert (forall ((x_11 Nat_0) (y_4 Nat_0) (z_4 Nat_0) (x_12 Nat_0) (x_13 Nat_0) (x_14 Nat_0) (fail_1 Nat_0) (x_127 Nat_0) (x_119 Nat_0) (x_120 Nat_0) (x_121 Nat_0) (x_122 Nat_0) (x_123 Nat_0) (x_124 Nat_0) (x_125 Nat_0) (x_126 Nat_0))
	(=>	(and (= x_127 fail_1)
			(= x_11 (succ_0 x_12))
			(= y_4 (succ_0 x_13))
			(= z_4 (succ_0 x_14))
			(= fail_1 x_126)
			(diseqNat_1 x_12 zero_0)
			(mul_0 x_119 x_12 x_13 x_14)
			(mul_0 x_120 (succ_0 zero_0) x_13 x_14)
			(mul_0 x_121 x_12 (succ_0 zero_0) x_14)
			(mul_0 x_122 x_12 x_13 (succ_0 zero_0))
			(add_0 x_123 x_120 x_121 x_122)
			(add_0 x_124 x_12 x_13 x_14)
			(add_0 x_125 x_119 x_123 x_124)
			(plus_0 x_126 (succ_0 zero_0) x_125))
		(mul_0 x_127 x_11 y_4 z_4))))
(assert (forall ((x_11 Nat_0) (y_4 Nat_0) (z_4 Nat_0) (x_12 Nat_0) (x_13 Nat_0) (x_14 Nat_0) (fail_1 Nat_0) (x_136 Nat_0) (x_128 Nat_0) (x_129 Nat_0) (x_130 Nat_0) (x_131 Nat_0) (x_132 Nat_0) (x_133 Nat_0) (x_134 Nat_0) (x_135 Nat_0))
	(=>	(and (= x_136 fail_1)
			(= x_11 (succ_0 x_12))
			(= y_4 (succ_0 x_13))
			(= z_4 (succ_0 x_14))
			(= fail_1 x_135)
			(= x_12 zero_0)
			(diseqNat_1 x_13 zero_0)
			(mul_0 x_128 x_12 x_13 x_14)
			(mul_0 x_129 (succ_0 zero_0) x_13 x_14)
			(mul_0 x_130 x_12 (succ_0 zero_0) x_14)
			(mul_0 x_131 x_12 x_13 (succ_0 zero_0))
			(add_0 x_132 x_129 x_130 x_131)
			(add_0 x_133 x_12 x_13 x_14)
			(add_0 x_134 x_128 x_132 x_133)
			(plus_0 x_135 (succ_0 zero_0) x_134))
		(mul_0 x_136 x_11 y_4 z_4))))
(assert (forall ((x_11 Nat_0) (y_4 Nat_0) (z_4 Nat_0) (x_12 Nat_0) (x_13 Nat_0) (x_14 Nat_0) (fail_1 Nat_0) (x_145 Nat_0) (x_137 Nat_0) (x_138 Nat_0) (x_139 Nat_0) (x_140 Nat_0) (x_141 Nat_0) (x_142 Nat_0) (x_143 Nat_0) (x_144 Nat_0))
	(=>	(and (= x_145 fail_1)
			(= x_11 (succ_0 x_12))
			(= y_4 (succ_0 x_13))
			(= z_4 (succ_0 x_14))
			(= fail_1 x_144)
			(diseqNat_1 x_12 zero_0)
			(mul_0 x_137 x_12 x_13 x_14)
			(mul_0 x_138 (succ_0 zero_0) x_13 x_14)
			(mul_0 x_139 x_12 (succ_0 zero_0) x_14)
			(mul_0 x_140 x_12 x_13 (succ_0 zero_0))
			(add_0 x_141 x_138 x_139 x_140)
			(add_0 x_142 x_12 x_13 x_14)
			(add_0 x_143 x_137 x_141 x_142)
			(plus_0 x_144 (succ_0 zero_0) x_143))
		(mul_0 x_145 x_11 y_4 z_4))))
(assert (forall ((x_11 Nat_0) (y_4 Nat_0) (z_4 Nat_0) (x_12 Nat_0) (x_13 Nat_0) (x_14 Nat_0) (fail_1 Nat_0) (x_154 Nat_0) (x_146 Nat_0) (x_147 Nat_0) (x_148 Nat_0) (x_149 Nat_0) (x_150 Nat_0) (x_151 Nat_0) (x_152 Nat_0) (x_153 Nat_0))
	(=>	(and (= x_154 fail_1)
			(= x_11 (succ_0 x_12))
			(= y_4 (succ_0 x_13))
			(= z_4 (succ_0 x_14))
			(= fail_1 x_153)
			(= x_12 zero_0)
			(= x_13 zero_0)
			(diseqNat_1 x_14 zero_0)
			(mul_0 x_146 x_12 x_13 x_14)
			(mul_0 x_147 (succ_0 zero_0) x_13 x_14)
			(mul_0 x_148 x_12 (succ_0 zero_0) x_14)
			(mul_0 x_149 x_12 x_13 (succ_0 zero_0))
			(add_0 x_150 x_147 x_148 x_149)
			(add_0 x_151 x_12 x_13 x_14)
			(add_0 x_152 x_146 x_150 x_151)
			(plus_0 x_153 (succ_0 zero_0) x_152))
		(mul_0 x_154 x_11 y_4 z_4))))
(assert (forall ((x_11 Nat_0) (y_4 Nat_0) (z_4 Nat_0) (x_12 Nat_0) (x_13 Nat_0) (x_14 Nat_0) (fail_1 Nat_0) (x_163 Nat_0) (x_155 Nat_0) (x_156 Nat_0) (x_157 Nat_0) (x_158 Nat_0) (x_159 Nat_0) (x_160 Nat_0) (x_161 Nat_0) (x_162 Nat_0))
	(=>	(and (= x_163 fail_1)
			(= x_11 (succ_0 x_12))
			(= y_4 (succ_0 x_13))
			(= z_4 (succ_0 x_14))
			(= fail_1 x_162)
			(diseqNat_1 x_12 zero_0)
			(mul_0 x_155 x_12 x_13 x_14)
			(mul_0 x_156 (succ_0 zero_0) x_13 x_14)
			(mul_0 x_157 x_12 (succ_0 zero_0) x_14)
			(mul_0 x_158 x_12 x_13 (succ_0 zero_0))
			(add_0 x_159 x_156 x_157 x_158)
			(add_0 x_160 x_12 x_13 x_14)
			(add_0 x_161 x_155 x_159 x_160)
			(plus_0 x_162 (succ_0 zero_0) x_161))
		(mul_0 x_163 x_11 y_4 z_4))))
(assert (forall ((x_11 Nat_0) (y_4 Nat_0) (z_4 Nat_0) (x_12 Nat_0) (x_13 Nat_0) (x_14 Nat_0) (fail_1 Nat_0) (x_172 Nat_0) (x_164 Nat_0) (x_165 Nat_0) (x_166 Nat_0) (x_167 Nat_0) (x_168 Nat_0) (x_169 Nat_0) (x_170 Nat_0) (x_171 Nat_0))
	(=>	(and (= x_172 fail_1)
			(= x_11 (succ_0 x_12))
			(= y_4 (succ_0 x_13))
			(= z_4 (succ_0 x_14))
			(= fail_1 x_171)
			(= x_12 zero_0)
			(diseqNat_1 x_13 zero_0)
			(mul_0 x_164 x_12 x_13 x_14)
			(mul_0 x_165 (succ_0 zero_0) x_13 x_14)
			(mul_0 x_166 x_12 (succ_0 zero_0) x_14)
			(mul_0 x_167 x_12 x_13 (succ_0 zero_0))
			(add_0 x_168 x_165 x_166 x_167)
			(add_0 x_169 x_12 x_13 x_14)
			(add_0 x_170 x_164 x_168 x_169)
			(plus_0 x_171 (succ_0 zero_0) x_170))
		(mul_0 x_172 x_11 y_4 z_4))))
(assert (forall ((x_11 Nat_0) (y_4 Nat_0) (z_4 Nat_0) (x_12 Nat_0) (x_13 Nat_0) (x_14 Nat_0) (fail_1 Nat_0) (x_181 Nat_0) (x_173 Nat_0) (x_174 Nat_0) (x_175 Nat_0) (x_176 Nat_0) (x_177 Nat_0) (x_178 Nat_0) (x_179 Nat_0) (x_180 Nat_0))
	(=>	(and (= x_181 fail_1)
			(= x_11 (succ_0 x_12))
			(= y_4 (succ_0 x_13))
			(= z_4 (succ_0 x_14))
			(= fail_1 x_180)
			(diseqNat_1 x_12 zero_0)
			(mul_0 x_173 x_12 x_13 x_14)
			(mul_0 x_174 (succ_0 zero_0) x_13 x_14)
			(mul_0 x_175 x_12 (succ_0 zero_0) x_14)
			(mul_0 x_176 x_12 x_13 (succ_0 zero_0))
			(add_0 x_177 x_174 x_175 x_176)
			(add_0 x_178 x_12 x_13 x_14)
			(add_0 x_179 x_173 x_177 x_178)
			(plus_0 x_180 (succ_0 zero_0) x_179))
		(mul_0 x_181 x_11 y_4 z_4))))
(assert (forall ((x_11 Nat_0) (y_4 Nat_0) (z_4 Nat_0) (x_12 Nat_0) (x_13 Nat_0) (x_182 Nat_0))
	(=>	(and (= x_182 zero_0)
			(= x_11 (succ_0 x_12))
			(= y_4 (succ_0 x_13))
			(= z_4 zero_0))
		(mul_0 x_182 x_11 y_4 z_4))))
(assert (forall ((x_11 Nat_0) (y_4 Nat_0) (z_4 Nat_0) (x_12 Nat_0) (x_183 Nat_0))
	(=>	(and (= x_183 zero_0)
			(= x_11 (succ_0 x_12))
			(= y_4 zero_0))
		(mul_0 x_183 x_11 y_4 z_4))))
(assert (forall ((x_11 Nat_0) (y_4 Nat_0) (z_4 Nat_0) (x_184 Nat_0))
	(=>	(and (= x_184 zero_0)
			(= x_11 zero_0))
		(mul_0 x_184 x_11 y_4 z_4))))
(assert (forall ((x_15 Nat_0) (y_5 Nat_0) (z_5 Nat_0) (x_185 Nat_0) (x_186 Nat_0))
	(=>	(and (diseqNat_1 x_185 x_186)
			(mul_0 x_185 x_15 y_5 z_5)
			(mulacc_0 x_186 x_15 y_5 z_5))
		false)))
(assert (forall ((x_16 Nat_0) (y_6 Nat_0) (z_6 Nat_0) (x_187 Nat_0) (x_188 Nat_0) (x_189 Nat_0) (x_190 Nat_0))
	(=>	(and (diseqNat_1 x_188 x_190)
			(plus_0 x_187 y_6 z_6)
			(plus_0 x_188 x_16 x_187)
			(plus_0 x_189 x_16 y_6)
			(plus_0 x_190 x_189 z_6))
		false)))
(assert (forall ((x_17 Nat_0) (y_7 Nat_0) (x_191 Nat_0) (x_192 Nat_0))
	(=>	(and (diseqNat_1 x_191 x_192)
			(plus_0 x_191 x_17 y_7)
			(plus_0 x_192 y_7 x_17))
		false)))
(assert (forall ((x_18 Nat_0) (x_193 Nat_0))
	(=>	(and (diseqNat_1 x_193 x_18)
			(plus_0 x_193 x_18 zero_0))
		false)))
(assert (forall ((x_19 Nat_0) (x_194 Nat_0))
	(=>	(and (diseqNat_1 x_194 x_19)
			(plus_0 x_194 zero_0 x_19))
		false)))
(check-sat)
